Min
end_6 + end_7 + end_8 + end_9 + end_10 + end_11 + end_12 + end_13 + end_14 + end_15 + end_16 + end_17
Subject To
1 end_9 + 1 end_8 + 1 end_7 + 1 end_6 + 1 end_17 + 1 end_16 + 1 end_15 + 1 end_14 + 1 end_13 + 1 end_12 + 1 end_11 + 1 end_10 = 1
1 k_9 + 1 k_8 + 1 k_7 + 1 k_6 + 1 k_5 + 1 k_4 + 1 k_16 + 1 k_15 + 1 k_14 + 1 k_13 + 1 k_12 + 1 k_11 + 1 k_10 = 1
9 k_9 - 8 k_8 - 7 k_7 - 6 k_6 - 5 k_5 - 4 k_4 - 16 k_16 - 15 k_15 - 14 k_14 - 13 k_13 - 12 k_12 - 11 k_11 - 10 k_10 + 9 end_9 + 8 end_8 + 7 end_7 + 6 end_6 + 17 end_17 + 16 end_16 + 15 end_15 + 14 end_14 + 13 end_13 + 12 end_12 + 11 end_11 + 10 end_10 >= 1
1 l_9 + 1 l_8 + 1 l_7 + 1 l_6 + 1 l_5 + 1 l_4 + 1 l_16 + 1 l_15 + 1 l_14 + 1 l_13 + 1 l_12 + 1 l_11 + 1 l_10 = 1
9 l_9 - 8 l_8 - 7 l_7 - 6 l_6 - 5 l_5 - 4 l_4 - 16 l_16 - 15 l_15 - 14 l_14 - 13 l_13 - 12 l_12 - 11 l_11 - 10 l_10 + 9 end_9 + 8 end_8 + 7 end_7 + 6 end_6 + 17 end_17 + 16 end_16 + 15 end_15 + 14 end_14 + 13 end_13 + 12 end_12 + 11 end_11 + 10 end_10 >= 1
1 m_9 + 1 m_8 + 1 m_7 + 1 m_6 + 1 m_5 + 1 m_4 + 1 m_3 + 1 m_2 + 1 m_16 + 1 m_15 + 1 m_14 + 1 m_13 + 1 m_12 + 1 m_11 + 1 m_10 = 1
9 m_9 - 8 m_8 - 7 m_7 - 6 m_6 - 5 m_5 - 4 m_4 - 3 m_3 - 2 m_2 - 16 m_16 - 15 m_15 - 14 m_14 - 13 m_13 - 12 m_12 - 11 m_11 - 10 m_10 + 9 end_9 + 8 end_8 + 7 end_7 + 6 end_6 + 17 end_17 + 16 end_16 + 15 end_15 + 14 end_14 + 13 end_13 + 12 end_12 + 11 end_11 + 10 end_10 >= 1
1 n_9 + 1 n_8 + 1 n_7 + 1 n_6 + 1 n_5 + 1 n_4 + 1 n_16 + 1 n_15 + 1 n_14 + 1 n_13 + 1 n_12 + 1 n_11 + 1 n_10 = 1
9 n_9 - 8 n_8 - 7 n_7 - 6 n_6 - 5 n_5 - 4 n_4 - 16 n_16 - 15 n_15 - 14 n_14 - 13 n_13 - 12 n_12 - 11 n_11 - 10 n_10 + 9 end_9 + 8 end_8 + 7 end_7 + 6 end_6 + 17 end_17 + 16 end_16 + 15 end_15 + 14 end_14 + 13 end_13 + 12 end_12 + 11 end_11 + 10 end_10 >= 1
1 o_9 + 1 o_8 + 1 o_7 + 1 o_6 + 1 o_5 + 1 o_4 + 1 o_16 + 1 o_15 + 1 o_14 + 1 o_13 + 1 o_12 + 1 o_11 + 1 o_10 = 1
9 o_9 - 8 o_8 - 7 o_7 - 6 o_6 - 5 o_5 - 4 o_4 - 16 o_16 - 15 o_15 - 14 o_14 - 13 o_13 - 12 o_12 - 11 o_11 - 10 o_10 + 9 end_9 + 8 end_8 + 7 end_7 + 6 end_6 + 17 end_17 + 16 end_16 + 15 end_15 + 14 end_14 + 13 end_13 + 12 end_12 + 11 end_11 + 10 end_10 >= 1
1 p_9 + 1 p_8 + 1 p_7 + 1 p_6 + 1 p_5 + 1 p_16 + 1 p_15 + 1 p_14 + 1 p_13 + 1 p_12 + 1 p_11 + 1 p_10 = 1
9 p_9 - 8 p_8 - 7 p_7 - 6 p_6 - 5 p_5 - 16 p_16 - 15 p_15 - 14 p_14 - 13 p_13 - 12 p_12 - 11 p_11 - 10 p_10 + 9 end_9 + 8 end_8 + 7 end_7 + 6 end_6 + 17 end_17 + 16 end_16 + 15 end_15 + 14 end_14 + 13 end_13 + 12 end_12 + 11 end_11 + 10 end_10 >= 1
1 q_9 + 1 q_8 + 1 q_7 + 1 q_6 + 1 q_5 + 1 q_16 + 1 q_15 + 1 q_14 + 1 q_13 + 1 q_12 + 1 q_11 + 1 q_10 = 1
9 q_9 - 8 q_8 - 7 q_7 - 6 q_6 - 5 q_5 - 16 q_16 - 15 q_15 - 14 q_14 - 13 q_13 - 12 q_12 - 11 q_11 - 10 q_10 + 9 end_9 + 8 end_8 + 7 end_7 + 6 end_6 + 17 end_17 + 16 end_16 + 15 end_15 + 14 end_14 + 13 end_13 + 12 end_12 + 11 end_11 + 10 end_10 >= 1
1 o315_9 + 1 o315_8 + 1 o315_7 + 1 o315_6 + 1 o315_5 + 1 o315_4 + 1 o315_3 + 1 o315_2 + 1 o315_12 + 1 o315_11 + 1 o315_10 + 1 o315_1 = 1
9 p315_9 + 8 p315_8 + 7 p315_7 + 6 p315_6 + 5 p315_5 + 4 p315_4 + 3 p315_3 + 2 p315_2 + 14 p315_14 + 13 p315_13 + 12 p315_12 + 11 p315_11 + 10 p315_10 - 9 o315_9 - 8 o315_8 - 7 o315_7 - 6 o315_6 - 5 o315_5 - 4 o315_4 - 3 o315_3 - 2 o315_2 - 12 o315_12 - 11 o315_11 - 10 o315_10 - 1 o315_1 >= 1
9 s315_9 + 8 s315_8 + 7 s315_7 + 6 s315_6 + 5 s315_5 + 4 s315_4 + 3 s315_3 + 2 s315_2 + 14 s315_14 + 13 s315_13 + 12 s315_12 + 11 s315_11 + 10 s315_10 - 9 o315_9 - 8 o315_8 - 7 o315_7 - 6 o315_6 - 5 o315_5 - 4 o315_4 - 3 o315_3 - 2 o315_2 - 12 o315_12 - 11 o315_11 - 10 o315_10 - 1 o315_1 >= 1
9 u315_9 + 8 u315_8 + 7 u315_7 + 6 u315_6 + 5 u315_5 + 4 u315_4 + 3 u315_3 + 2 u315_2 + 13 u315_13 + 12 u315_12 + 11 u315_11 + 10 u315_10 - 9 o315_9 - 8 o315_8 - 7 o315_7 - 6 o315_6 - 5 o315_5 - 4 o315_4 - 3 o315_3 - 2 o315_2 - 12 o315_12 - 11 o315_11 - 10 o315_10 - 1 o315_1 >= 1
9 o315_9 - 8 o315_8 - 7 o315_7 - 6 o315_6 - 5 o315_5 - 4 o315_4 - 3 o315_3 - 2 o315_2 - 12 o315_12 - 11 o315_11 - 10 o315_10 - 1 o315_1 + 9 m316_9 + 8 m316_8 + 7 m316_7 + 6 m316_6 + 5 m316_5 + 4 m316_4 + 3 m316_3 + 14 m316_14 + 13 m316_13 + 12 m316_12 + 11 m316_11 + 10 m316_10 >= 1
9 r316_9 + 8 r316_8 + 7 r316_7 + 6 r316_6 + 5 r316_5 + 4 r316_4 + 3 r316_3 + 2 r316_2 + 13 r316_13 + 12 r316_12 + 11 r316_11 + 10 r316_10 - 9 o315_9 - 8 o315_8 - 7 o315_7 - 6 o315_6 - 5 o315_5 - 4 o315_4 - 3 o315_3 - 2 o315_2 - 12 o315_12 - 11 o315_11 - 10 o315_10 - 1 o315_1 >= 1
9 o315_9 - 8 o315_8 - 7 o315_7 - 6 o315_6 - 5 o315_5 - 4 o315_4 - 3 o315_3 - 2 o315_2 - 12 o315_12 - 11 o315_11 - 10 o315_10 - 1 o315_1 + 9 b317_9 + 8 b317_8 + 7 b317_7 + 6 b317_6 + 5 b317_5 + 4 b317_4 + 3 b317_3 + 2 b317_2 + 13 b317_13 + 12 b317_12 + 11 b317_11 + 10 b317_10 >= 1
1 p315_9 + 1 p315_8 + 1 p315_7 + 1 p315_6 + 1 p315_5 + 1 p315_4 + 1 p315_3 + 1 p315_2 + 1 p315_14 + 1 p315_13 + 1 p315_12 + 1 p315_11 + 1 p315_10 = 1
9 w315_9 + 8 w315_8 + 7 w315_7 + 6 w315_6 + 5 w315_5 + 4 w315_4 + 3 w315_3 + 15 w315_15 + 14 w315_14 + 13 w315_13 + 12 w315_12 + 11 w315_11 + 10 w315_10 - 9 p315_9 - 8 p315_8 - 7 p315_7 - 6 p315_6 - 5 p315_5 - 4 p315_4 - 3 p315_3 - 2 p315_2 - 14 p315_14 - 13 p315_13 - 12 p315_12 - 11 p315_11 - 10 p315_10 >= 1
9 z315_9 + 8 z315_8 + 7 z315_7 + 6 z315_6 + 5 z315_5 + 4 z315_4 + 3 z315_3 + 15 z315_15 + 14 z315_14 + 13 z315_13 + 12 z315_12 + 11 z315_11 + 10 z315_10 - 9 p315_9 - 8 p315_8 - 7 p315_7 - 6 p315_6 - 5 p315_5 - 4 p315_4 - 3 p315_3 - 2 p315_2 - 14 p315_14 - 13 p315_13 - 12 p315_12 - 11 p315_11 - 10 p315_10 >= 1
9 p315_9 - 8 p315_8 - 7 p315_7 - 6 p315_6 - 5 p315_5 - 4 p315_4 - 3 p315_3 - 2 p315_2 - 14 p315_14 - 13 p315_13 - 12 p315_12 - 11 p315_11 - 10 p315_10 + 9 h316_9 + 8 h316_8 + 7 h316_7 + 6 h316_6 + 5 h316_5 + 4 h316_4 + 3 h316_3 + 15 h316_15 + 14 h316_14 + 13 h316_13 + 12 h316_12 + 11 h316_11 + 10 h316_10 >= 1
9 p315_9 - 8 p315_8 - 7 p315_7 - 6 p315_6 - 5 p315_5 - 4 p315_4 - 3 p315_3 - 2 p315_2 - 14 p315_14 - 13 p315_13 - 12 p315_12 - 11 p315_11 - 10 p315_10 + 9 j316_9 + 8 j316_8 + 7 j316_7 + 6 j316_6 + 5 j316_5 + 4 j316_4 + 3 j316_3 + 15 j316_15 + 14 j316_14 + 13 j316_13 + 12 j316_12 + 11 j316_11 + 10 j316_10 >= 1
1 q315_9 + 1 q315_8 + 1 q315_7 + 1 q315_6 + 1 q315_5 + 1 q315_4 + 1 q315_3 + 1 q315_2 + 1 q315_14 + 1 q315_13 + 1 q315_12 + 1 q315_11 + 1 q315_10 + 1 q315_1 = 1
9 w315_9 + 8 w315_8 + 7 w315_7 + 6 w315_6 + 5 w315_5 + 4 w315_4 + 3 w315_3 + 15 w315_15 + 14 w315_14 + 13 w315_13 + 12 w315_12 + 11 w315_11 + 10 w315_10 - 9 q315_9 - 8 q315_8 - 7 q315_7 - 6 q315_6 - 5 q315_5 - 4 q315_4 - 3 q315_3 - 2 q315_2 - 14 q315_14 - 13 q315_13 - 12 q315_12 - 11 q315_11 - 10 q315_10 - 1 q315_1 >= 1
1 r315_9 + 1 r315_8 + 1 r315_7 + 1 r315_6 + 1 r315_5 + 1 r315_4 + 1 r315_3 + 1 r315_2 + 1 r315_13 + 1 r315_12 + 1 r315_11 + 1 r315_10 + 1 r315_1 = 1
9 s315_9 + 8 s315_8 + 7 s315_7 + 6 s315_6 + 5 s315_5 + 4 s315_4 + 3 s315_3 + 2 s315_2 + 14 s315_14 + 13 s315_13 + 12 s315_12 + 11 s315_11 + 10 s315_10 - 9 r315_9 - 8 r315_8 - 7 r315_7 - 6 r315_6 - 5 r315_5 - 4 r315_4 - 3 r315_3 - 2 r315_2 - 13 r315_13 - 12 r315_12 - 11 r315_11 - 10 r315_10 - 1 r315_1 >= 1
9 v315_9 + 8 v315_8 + 7 v315_7 + 6 v315_6 + 5 v315_5 + 4 v315_4 + 3 v315_3 + 2 v315_2 + 14 v315_14 + 13 v315_13 + 12 v315_12 + 11 v315_11 + 10 v315_10 - 9 r315_9 - 8 r315_8 - 7 r315_7 - 6 r315_6 - 5 r315_5 - 4 r315_4 - 3 r315_3 - 2 r315_2 - 13 r315_13 - 12 r315_12 - 11 r315_11 - 10 r315_10 - 1 r315_1 >= 1
9 r315_9 - 8 r315_8 - 7 r315_7 - 6 r315_6 - 5 r315_5 - 4 r315_4 - 3 r315_3 - 2 r315_2 - 13 r315_13 - 12 r315_12 - 11 r315_11 - 10 r315_10 - 1 r315_1 + 9 n316_9 + 8 n316_8 + 7 n316_7 + 6 n316_6 + 5 n316_5 + 4 n316_4 + 15 n316_15 + 14 n316_14 + 13 n316_13 + 12 n316_12 + 11 n316_11 + 10 n316_10 >= 1
1 s315_9 + 1 s315_8 + 1 s315_7 + 1 s315_6 + 1 s315_5 + 1 s315_4 + 1 s315_3 + 1 s315_2 + 1 s315_14 + 1 s315_13 + 1 s315_12 + 1 s315_11 + 1 s315_10 = 1
9 w315_9 + 8 w315_8 + 7 w315_7 + 6 w315_6 + 5 w315_5 + 4 w315_4 + 3 w315_3 + 15 w315_15 + 14 w315_14 + 13 w315_13 + 12 w315_12 + 11 w315_11 + 10 w315_10 - 9 s315_9 - 8 s315_8 - 7 s315_7 - 6 s315_6 - 5 s315_5 - 4 s315_4 - 3 s315_3 - 2 s315_2 - 14 s315_14 - 13 s315_13 - 12 s315_12 - 11 s315_11 - 10 s315_10 >= 1
9 z315_9 + 8 z315_8 + 7 z315_7 + 6 z315_6 + 5 z315_5 + 4 z315_4 + 3 z315_3 + 15 z315_15 + 14 z315_14 + 13 z315_13 + 12 z315_12 + 11 z315_11 + 10 z315_10 - 9 s315_9 - 8 s315_8 - 7 s315_7 - 6 s315_6 - 5 s315_5 - 4 s315_4 - 3 s315_3 - 2 s315_2 - 14 s315_14 - 13 s315_13 - 12 s315_12 - 11 s315_11 - 10 s315_10 >= 1
9 s315_9 - 8 s315_8 - 7 s315_7 - 6 s315_6 - 5 s315_5 - 4 s315_4 - 3 s315_3 - 2 s315_2 - 14 s315_14 - 13 s315_13 - 12 s315_12 - 11 s315_11 - 10 s315_10 + 9 h316_9 + 8 h316_8 + 7 h316_7 + 6 h316_6 + 5 h316_5 + 4 h316_4 + 3 h316_3 + 15 h316_15 + 14 h316_14 + 13 h316_13 + 12 h316_12 + 11 h316_11 + 10 h316_10 >= 1
9 s315_9 - 8 s315_8 - 7 s315_7 - 6 s315_6 - 5 s315_5 - 4 s315_4 - 3 s315_3 - 2 s315_2 - 14 s315_14 - 13 s315_13 - 12 s315_12 - 11 s315_11 - 10 s315_10 + 9 j316_9 + 8 j316_8 + 7 j316_7 + 6 j316_6 + 5 j316_5 + 4 j316_4 + 3 j316_3 + 15 j316_15 + 14 j316_14 + 13 j316_13 + 12 j316_12 + 11 j316_11 + 10 j316_10 >= 1
1 t315_9 + 1 t315_8 + 1 t315_7 + 1 t315_6 + 1 t315_5 + 1 t315_4 + 1 t315_3 + 1 t315_2 + 1 t315_12 + 1 t315_11 + 1 t315_10 + 1 t315_1 = 1
9 u315_9 + 8 u315_8 + 7 u315_7 + 6 u315_6 + 5 u315_5 + 4 u315_4 + 3 u315_3 + 2 u315_2 + 13 u315_13 + 12 u315_12 + 11 u315_11 + 10 u315_10 - 9 t315_9 - 8 t315_8 - 7 t315_7 - 6 t315_6 - 5 t315_5 - 4 t315_4 - 3 t315_3 - 2 t315_2 - 12 t315_12 - 11 t315_11 - 10 t315_10 - 1 t315_1 >= 1
9 y315_9 + 8 y315_8 + 7 y315_7 + 6 y315_6 + 5 y315_5 + 4 y315_4 + 3 y315_3 + 2 y315_2 + 14 y315_14 + 13 y315_13 + 12 y315_12 + 11 y315_11 + 10 y315_10 - 9 t315_9 - 8 t315_8 - 7 t315_7 - 6 t315_6 - 5 t315_5 - 4 t315_4 - 3 t315_3 - 2 t315_2 - 12 t315_12 - 11 t315_11 - 10 t315_10 - 1 t315_1 >= 1
9 t315_9 - 8 t315_8 - 7 t315_7 - 6 t315_6 - 5 t315_5 - 4 t315_4 - 3 t315_3 - 2 t315_2 - 12 t315_12 - 11 t315_11 - 10 t315_10 - 1 t315_1 + 9 g316_9 + 8 g316_8 + 7 g316_7 + 6 g316_6 + 5 g316_5 + 4 g316_4 + 3 g316_3 + 2 g316_2 + 14 g316_14 + 13 g316_13 + 12 g316_12 + 11 g316_11 + 10 g316_10 >= 1
9 t315_9 - 8 t315_8 - 7 t315_7 - 6 t315_6 - 5 t315_5 - 4 t315_4 - 3 t315_3 - 2 t315_2 - 12 t315_12 - 11 t315_11 - 10 t315_10 - 1 t315_1 + 9 l316_9 + 8 l316_8 + 7 l316_7 + 6 l316_6 + 5 l316_5 + 4 l316_4 + 3 l316_3 + 2 l316_2 + 13 l316_13 + 12 l316_12 + 11 l316_11 + 10 l316_10 >= 1
9 u316_9 + 8 u316_8 + 7 u316_7 + 6 u316_6 + 5 u316_5 + 4 u316_4 + 3 u316_3 + 2 u316_2 + 15 u316_15 + 14 u316_14 + 13 u316_13 + 12 u316_12 + 11 u316_11 + 10 u316_10 - 9 t315_9 - 8 t315_8 - 7 t315_7 - 6 t315_6 - 5 t315_5 - 4 t315_4 - 3 t315_3 - 2 t315_2 - 12 t315_12 - 11 t315_11 - 10 t315_10 - 1 t315_1 >= 1
1 u315_9 + 1 u315_8 + 1 u315_7 + 1 u315_6 + 1 u315_5 + 1 u315_4 + 1 u315_3 + 1 u315_2 + 1 u315_13 + 1 u315_12 + 1 u315_11 + 1 u315_10 = 1
9 w315_9 + 8 w315_8 + 7 w315_7 + 6 w315_6 + 5 w315_5 + 4 w315_4 + 3 w315_3 + 15 w315_15 + 14 w315_14 + 13 w315_13 + 12 w315_12 + 11 w315_11 + 10 w315_10 - 9 u315_9 - 8 u315_8 - 7 u315_7 - 6 u315_6 - 5 u315_5 - 4 u315_4 - 3 u315_3 - 2 u315_2 - 13 u315_13 - 12 u315_12 - 11 u315_11 - 10 u315_10 >= 1
9 u315_9 - 8 u315_8 - 7 u315_7 - 6 u315_6 - 5 u315_5 - 4 u315_4 - 3 u315_3 - 2 u315_2 - 13 u315_13 - 12 u315_12 - 11 u315_11 - 10 u315_10 + 9 h316_9 + 8 h316_8 + 7 h316_7 + 6 h316_6 + 5 h316_5 + 4 h316_4 + 3 h316_3 + 15 h316_15 + 14 h316_14 + 13 h316_13 + 12 h316_12 + 11 h316_11 + 10 h316_10 >= 1
9 y316_9 + 8 y316_8 + 7 y316_7 + 6 y316_6 + 5 y316_5 + 4 y316_4 + 3 y316_3 + 14 y316_14 + 13 y316_13 + 12 y316_12 + 11 y316_11 + 10 y316_10 - 9 u315_9 - 8 u315_8 - 7 u315_7 - 6 u315_6 - 5 u315_5 - 4 u315_4 - 3 u315_3 - 2 u315_2 - 13 u315_13 - 12 u315_12 - 11 u315_11 - 10 u315_10 >= 1
1 v315_9 + 1 v315_8 + 1 v315_7 + 1 v315_6 + 1 v315_5 + 1 v315_4 + 1 v315_3 + 1 v315_2 + 1 v315_14 + 1 v315_13 + 1 v315_12 + 1 v315_11 + 1 v315_10 = 1
9 w315_9 + 8 w315_8 + 7 w315_7 + 6 w315_6 + 5 w315_5 + 4 w315_4 + 3 w315_3 + 15 w315_15 + 14 w315_14 + 13 w315_13 + 12 w315_12 + 11 w315_11 + 10 w315_10 - 9 v315_9 - 8 v315_8 - 7 v315_7 - 6 v315_6 - 5 v315_5 - 4 v315_4 - 3 v315_3 - 2 v315_2 - 14 v315_14 - 13 v315_13 - 12 v315_12 - 11 v315_11 - 10 v315_10 >= 1
9 z315_9 + 8 z315_8 + 7 z315_7 + 6 z315_6 + 5 z315_5 + 4 z315_4 + 3 z315_3 + 15 z315_15 + 14 z315_14 + 13 z315_13 + 12 z315_12 + 11 z315_11 + 10 z315_10 - 9 v315_9 - 8 v315_8 - 7 v315_7 - 6 v315_6 - 5 v315_5 - 4 v315_4 - 3 v315_3 - 2 v315_2 - 14 v315_14 - 13 v315_13 - 12 v315_12 - 11 v315_11 - 10 v315_10 >= 1
9 v315_9 - 8 v315_8 - 7 v315_7 - 6 v315_6 - 5 v315_5 - 4 v315_4 - 3 v315_3 - 2 v315_2 - 14 v315_14 - 13 v315_13 - 12 v315_12 - 11 v315_11 - 10 v315_10 + 9 j316_9 + 8 j316_8 + 7 j316_7 + 6 j316_6 + 5 j316_5 + 4 j316_4 + 3 j316_3 + 15 j316_15 + 14 j316_14 + 13 j316_13 + 12 j316_12 + 11 j316_11 + 10 j316_10 >= 1
1 w315_9 + 1 w315_8 + 1 w315_7 + 1 w315_6 + 1 w315_5 + 1 w315_4 + 1 w315_3 + 1 w315_15 + 1 w315_14 + 1 w315_13 + 1 w315_12 + 1 w315_11 + 1 w315_10 = 1
9 w315_9 - 8 w315_8 - 7 w315_7 - 6 w315_6 - 5 w315_5 - 4 w315_4 - 3 w315_3 - 15 w315_15 - 14 w315_14 - 13 w315_13 - 12 w315_12 - 11 w315_11 - 10 w315_10 + 9 k_9 + 8 k_8 + 7 k_7 + 6 k_6 + 5 k_5 + 4 k_4 + 16 k_16 + 15 k_15 + 14 k_14 + 13 k_13 + 12 k_12 + 11 k_11 + 10 k_10 >= 1
1 y315_9 + 1 y315_8 + 1 y315_7 + 1 y315_6 + 1 y315_5 + 1 y315_4 + 1 y315_3 + 1 y315_2 + 1 y315_14 + 1 y315_13 + 1 y315_12 + 1 y315_11 + 1 y315_10 = 1
9 z315_9 + 8 z315_8 + 7 z315_7 + 6 z315_6 + 5 z315_5 + 4 z315_4 + 3 z315_3 + 15 z315_15 + 14 z315_14 + 13 z315_13 + 12 z315_12 + 11 z315_11 + 10 z315_10 - 9 y315_9 - 8 y315_8 - 7 y315_7 - 6 y315_6 - 5 y315_5 - 4 y315_4 - 3 y315_3 - 2 y315_2 - 14 y315_14 - 13 y315_13 - 12 y315_12 - 11 y315_11 - 10 y315_10 >= 1
1 z315_9 + 1 z315_8 + 1 z315_7 + 1 z315_6 + 1 z315_5 + 1 z315_4 + 1 z315_3 + 1 z315_15 + 1 z315_14 + 1 z315_13 + 1 z315_12 + 1 z315_11 + 1 z315_10 = 1
9 z315_9 - 8 z315_8 - 7 z315_7 - 6 z315_6 - 5 z315_5 - 4 z315_4 - 3 z315_3 - 15 z315_15 - 14 z315_14 - 13 z315_13 - 12 z315_12 - 11 z315_11 - 10 z315_10 + 9 l_9 + 8 l_8 + 7 l_7 + 6 l_6 + 5 l_5 + 4 l_4 + 16 l_16 + 15 l_15 + 14 l_14 + 13 l_13 + 12 l_12 + 11 l_11 + 10 l_10 >= 1
1 b316_9 + 1 b316_8 + 1 b316_7 + 1 b316_6 + 1 b316_5 + 1 b316_4 + 1 b316_3 + 1 b316_2 + 1 b316_13 + 1 b316_12 + 1 b316_11 + 1 b316_10 + 1 b316_1 = 1
9 m_9 + 8 m_8 + 7 m_7 + 6 m_6 + 5 m_5 + 4 m_4 + 3 m_3 + 2 m_2 + 16 m_16 + 15 m_15 + 14 m_14 + 13 m_13 + 12 m_12 + 11 m_11 + 10 m_10 - 9 b316_9 - 8 b316_8 - 7 b316_7 - 6 b316_6 - 5 b316_5 - 4 b316_4 - 3 b316_3 - 2 b316_2 - 13 b316_13 - 12 b316_12 - 11 b316_11 - 10 b316_10 - 1 b316_1 >= 1
9 h316_9 + 8 h316_8 + 7 h316_7 + 6 h316_6 + 5 h316_5 + 4 h316_4 + 3 h316_3 + 15 h316_15 + 14 h316_14 + 13 h316_13 + 12 h316_12 + 11 h316_11 + 10 h316_10 - 9 b316_9 - 8 b316_8 - 7 b316_7 - 6 b316_6 - 5 b316_5 - 4 b316_4 - 3 b316_3 - 2 b316_2 - 13 b316_13 - 12 b316_12 - 11 b316_11 - 10 b316_10 - 1 b316_1 >= 1
9 j316_9 + 8 j316_8 + 7 j316_7 + 6 j316_6 + 5 j316_5 + 4 j316_4 + 3 j316_3 + 15 j316_15 + 14 j316_14 + 13 j316_13 + 12 j316_12 + 11 j316_11 + 10 j316_10 - 9 b316_9 - 8 b316_8 - 7 b316_7 - 6 b316_6 - 5 b316_5 - 4 b316_4 - 3 b316_3 - 2 b316_2 - 13 b316_13 - 12 b316_12 - 11 b316_11 - 10 b316_10 - 1 b316_1 >= 1
9 y316_9 + 8 y316_8 + 7 y316_7 + 6 y316_6 + 5 y316_5 + 4 y316_4 + 3 y316_3 + 14 y316_14 + 13 y316_13 + 12 y316_12 + 11 y316_11 + 10 y316_10 - 9 b316_9 - 8 b316_8 - 7 b316_7 - 6 b316_6 - 5 b316_5 - 4 b316_4 - 3 b316_3 - 2 b316_2 - 13 b316_13 - 12 b316_12 - 11 b316_11 - 10 b316_10 - 1 b316_1 >= 1
1 d316_9 + 1 d316_8 + 1 d316_7 + 1 d316_6 + 1 d316_5 + 1 d316_4 + 1 d316_3 + 1 d316_2 + 1 d316_12 + 1 d316_11 + 1 d316_10 + 1 d316_1 = 1
9 h316_9 + 8 h316_8 + 7 h316_7 + 6 h316_6 + 5 h316_5 + 4 h316_4 + 3 h316_3 + 15 h316_15 + 14 h316_14 + 13 h316_13 + 12 h316_12 + 11 h316_11 + 10 h316_10 - 9 d316_9 - 8 d316_8 - 7 d316_7 - 6 d316_6 - 5 d316_5 - 4 d316_4 - 3 d316_3 - 2 d316_2 - 12 d316_12 - 11 d316_11 - 10 d316_10 - 1 d316_1 >= 1
9 l316_9 + 8 l316_8 + 7 l316_7 + 6 l316_6 + 5 l316_5 + 4 l316_4 + 3 l316_3 + 2 l316_2 + 13 l316_13 + 12 l316_12 + 11 l316_11 + 10 l316_10 - 9 d316_9 - 8 d316_8 - 7 d316_7 - 6 d316_6 - 5 d316_5 - 4 d316_4 - 3 d316_3 - 2 d316_2 - 12 d316_12 - 11 d316_11 - 10 d316_10 - 1 d316_1 >= 1
9 p316_9 + 8 p316_8 + 7 p316_7 + 6 p316_6 + 5 p316_5 + 4 p316_4 + 3 p316_3 + 2 p316_2 + 13 p316_13 + 12 p316_12 + 11 p316_11 + 10 p316_10 - 9 d316_9 - 8 d316_8 - 7 d316_7 - 6 d316_6 - 5 d316_5 - 4 d316_4 - 3 d316_3 - 2 d316_2 - 12 d316_12 - 11 d316_11 - 10 d316_10 - 1 d316_1 >= 1
9 d316_9 - 8 d316_8 - 7 d316_7 - 6 d316_6 - 5 d316_5 - 4 d316_4 - 3 d316_3 - 2 d316_2 - 12 d316_12 - 11 d316_11 - 10 d316_10 - 1 d316_1 + 9 c317_9 + 8 c317_8 + 7 c317_7 + 6 c317_6 + 5 c317_5 + 4 c317_4 + 3 c317_3 + 2 c317_2 + 13 c317_13 + 12 c317_12 + 11 c317_11 + 10 c317_10 >= 1
1 e316_9 + 1 e316_8 + 1 e316_7 + 1 e316_6 + 1 e316_5 + 1 e316_4 + 1 e316_3 + 1 e316_2 + 1 e316_12 + 1 e316_11 + 1 e316_10 + 1 e316_1 = 1
9 h316_9 + 8 h316_8 + 7 h316_7 + 6 h316_6 + 5 h316_5 + 4 h316_4 + 3 h316_3 + 15 h316_15 + 14 h316_14 + 13 h316_13 + 12 h316_12 + 11 h316_11 + 10 h316_10 - 9 e316_9 - 8 e316_8 - 7 e316_7 - 6 e316_6 - 5 e316_5 - 4 e316_4 - 3 e316_3 - 2 e316_2 - 12 e316_12 - 11 e316_11 - 10 e316_10 - 1 e316_1 >= 1
9 l316_9 + 8 l316_8 + 7 l316_7 + 6 l316_6 + 5 l316_5 + 4 l316_4 + 3 l316_3 + 2 l316_2 + 13 l316_13 + 12 l316_12 + 11 l316_11 + 10 l316_10 - 9 e316_9 - 8 e316_8 - 7 e316_7 - 6 e316_6 - 5 e316_5 - 4 e316_4 - 3 e316_3 - 2 e316_2 - 12 e316_12 - 11 e316_11 - 10 e316_10 - 1 e316_1 >= 1
9 p316_9 + 8 p316_8 + 7 p316_7 + 6 p316_6 + 5 p316_5 + 4 p316_4 + 3 p316_3 + 2 p316_2 + 13 p316_13 + 12 p316_12 + 11 p316_11 + 10 p316_10 - 9 e316_9 - 8 e316_8 - 7 e316_7 - 6 e316_6 - 5 e316_5 - 4 e316_4 - 3 e316_3 - 2 e316_2 - 12 e316_12 - 11 e316_11 - 10 e316_10 - 1 e316_1 >= 1
9 e316_9 - 8 e316_8 - 7 e316_7 - 6 e316_6 - 5 e316_5 - 4 e316_4 - 3 e316_3 - 2 e316_2 - 12 e316_12 - 11 e316_11 - 10 e316_10 - 1 e316_1 + 9 c317_9 + 8 c317_8 + 7 c317_7 + 6 c317_6 + 5 c317_5 + 4 c317_4 + 3 c317_3 + 2 c317_2 + 13 c317_13 + 12 c317_12 + 11 c317_11 + 10 c317_10 >= 1
1 f316_9 + 1 f316_8 + 1 f316_7 + 1 f316_6 + 1 f316_5 + 1 f316_4 + 1 f316_3 + 1 f316_2 + 1 f316_12 + 1 f316_11 + 1 f316_10 + 1 f316_1 = 1
9 h316_9 + 8 h316_8 + 7 h316_7 + 6 h316_6 + 5 h316_5 + 4 h316_4 + 3 h316_3 + 15 h316_15 + 14 h316_14 + 13 h316_13 + 12 h316_12 + 11 h316_11 + 10 h316_10 - 9 f316_9 - 8 f316_8 - 7 f316_7 - 6 f316_6 - 5 f316_5 - 4 f316_4 - 3 f316_3 - 2 f316_2 - 12 f316_12 - 11 f316_11 - 10 f316_10 - 1 f316_1 >= 1
9 f316_9 - 8 f316_8 - 7 f316_7 - 6 f316_6 - 5 f316_5 - 4 f316_4 - 3 f316_3 - 2 f316_2 - 12 f316_12 - 11 f316_11 - 10 f316_10 - 1 f316_1 + 9 c317_9 + 8 c317_8 + 7 c317_7 + 6 c317_6 + 5 c317_5 + 4 c317_4 + 3 c317_3 + 2 c317_2 + 13 c317_13 + 12 c317_12 + 11 c317_11 + 10 c317_10 >= 1
1 g316_9 + 1 g316_8 + 1 g316_7 + 1 g316_6 + 1 g316_5 + 1 g316_4 + 1 g316_3 + 1 g316_2 + 1 g316_14 + 1 g316_13 + 1 g316_12 + 1 g316_11 + 1 g316_10 = 1
9 h316_9 + 8 h316_8 + 7 h316_7 + 6 h316_6 + 5 h316_5 + 4 h316_4 + 3 h316_3 + 15 h316_15 + 14 h316_14 + 13 h316_13 + 12 h316_12 + 11 h316_11 + 10 h316_10 - 9 g316_9 - 8 g316_8 - 7 g316_7 - 6 g316_6 - 5 g316_5 - 4 g316_4 - 3 g316_3 - 2 g316_2 - 14 g316_14 - 13 g316_13 - 12 g316_12 - 11 g316_11 - 10 g316_10 >= 1
1 h316_9 + 1 h316_8 + 1 h316_7 + 1 h316_6 + 1 h316_5 + 1 h316_4 + 1 h316_3 + 1 h316_15 + 1 h316_14 + 1 h316_13 + 1 h316_12 + 1 h316_11 + 1 h316_10 = 1
9 n_9 + 8 n_8 + 7 n_7 + 6 n_6 + 5 n_5 + 4 n_4 + 16 n_16 + 15 n_15 + 14 n_14 + 13 n_13 + 12 n_12 + 11 n_11 + 10 n_10 - 9 h316_9 - 8 h316_8 - 7 h316_7 - 6 h316_6 - 5 h316_5 - 4 h316_4 - 3 h316_3 - 15 h316_15 - 14 h316_14 - 13 h316_13 - 12 h316_12 - 11 h316_11 - 10 h316_10 >= 1
1 j316_9 + 1 j316_8 + 1 j316_7 + 1 j316_6 + 1 j316_5 + 1 j316_4 + 1 j316_3 + 1 j316_15 + 1 j316_14 + 1 j316_13 + 1 j316_12 + 1 j316_11 + 1 j316_10 = 1
9 o_9 + 8 o_8 + 7 o_7 + 6 o_6 + 5 o_5 + 4 o_4 + 16 o_16 + 15 o_15 + 14 o_14 + 13 o_13 + 12 o_12 + 11 o_11 + 10 o_10 - 9 j316_9 - 8 j316_8 - 7 j316_7 - 6 j316_6 - 5 j316_5 - 4 j316_4 - 3 j316_3 - 15 j316_15 - 14 j316_14 - 13 j316_13 - 12 j316_12 - 11 j316_11 - 10 j316_10 >= 1
1 l316_9 + 1 l316_8 + 1 l316_7 + 1 l316_6 + 1 l316_5 + 1 l316_4 + 1 l316_3 + 1 l316_2 + 1 l316_13 + 1 l316_12 + 1 l316_11 + 1 l316_10 = 1
9 m316_9 + 8 m316_8 + 7 m316_7 + 6 m316_6 + 5 m316_5 + 4 m316_4 + 3 m316_3 + 14 m316_14 + 13 m316_13 + 12 m316_12 + 11 m316_11 + 10 m316_10 - 9 l316_9 - 8 l316_8 - 7 l316_7 - 6 l316_6 - 5 l316_5 - 4 l316_4 - 3 l316_3 - 2 l316_2 - 13 l316_13 - 12 l316_12 - 11 l316_11 - 10 l316_10 >= 1
1 m316_9 + 1 m316_8 + 1 m316_7 + 1 m316_6 + 1 m316_5 + 1 m316_4 + 1 m316_3 + 1 m316_14 + 1 m316_13 + 1 m316_12 + 1 m316_11 + 1 m316_10 = 1
9 n316_9 + 8 n316_8 + 7 n316_7 + 6 n316_6 + 5 n316_5 + 4 n316_4 + 15 n316_15 + 14 n316_14 + 13 n316_13 + 12 n316_12 + 11 n316_11 + 10 n316_10 - 9 m316_9 - 8 m316_8 - 7 m316_7 - 6 m316_6 - 5 m316_5 - 4 m316_4 - 3 m316_3 - 14 m316_14 - 13 m316_13 - 12 m316_12 - 11 m316_11 - 10 m316_10 >= 1
1 n316_9 + 1 n316_8 + 1 n316_7 + 1 n316_6 + 1 n316_5 + 1 n316_4 + 1 n316_15 + 1 n316_14 + 1 n316_13 + 1 n316_12 + 1 n316_11 + 1 n316_10 = 1
9 p_9 + 8 p_8 + 7 p_7 + 6 p_6 + 5 p_5 + 16 p_16 + 15 p_15 + 14 p_14 + 13 p_13 + 12 p_12 + 11 p_11 + 10 p_10 - 9 n316_9 - 8 n316_8 - 7 n316_7 - 6 n316_6 - 5 n316_5 - 4 n316_4 - 15 n316_15 - 14 n316_14 - 13 n316_13 - 12 n316_12 - 11 n316_11 - 10 n316_10 >= 1
1 o316_9 + 1 o316_8 + 1 o316_7 + 1 o316_6 + 1 o316_5 + 1 o316_4 + 1 o316_3 + 1 o316_2 + 1 o316_15 + 1 o316_14 + 1 o316_13 + 1 o316_12 + 1 o316_11 + 1 o316_10 + 1 o316_1 = 1
9 p_9 + 8 p_8 + 7 p_7 + 6 p_6 + 5 p_5 + 16 p_16 + 15 p_15 + 14 p_14 + 13 p_13 + 12 p_12 + 11 p_11 + 10 p_10 - 9 o316_9 - 8 o316_8 - 7 o316_7 - 6 o316_6 - 5 o316_5 - 4 o316_4 - 3 o316_3 - 2 o316_2 - 15 o316_15 - 14 o316_14 - 13 o316_13 - 12 o316_12 - 11 o316_11 - 10 o316_10 - 1 o316_1 >= 1
1 p316_9 + 1 p316_8 + 1 p316_7 + 1 p316_6 + 1 p316_5 + 1 p316_4 + 1 p316_3 + 1 p316_2 + 1 p316_13 + 1 p316_12 + 1 p316_11 + 1 p316_10 = 1
9 s316_9 + 8 s316_8 + 7 s316_7 + 6 s316_6 + 5 s316_5 + 4 s316_4 + 3 s316_3 + 14 s316_14 + 13 s316_13 + 12 s316_12 + 11 s316_11 + 10 s316_10 - 9 p316_9 - 8 p316_8 - 7 p316_7 - 6 p316_6 - 5 p316_5 - 4 p316_4 - 3 p316_3 - 2 p316_2 - 13 p316_13 - 12 p316_12 - 11 p316_11 - 10 p316_10 >= 1
1 q316_9 + 1 q316_8 + 1 q316_7 + 1 q316_6 + 1 q316_5 + 1 q316_4 + 1 q316_3 + 1 q316_2 + 1 q316_12 + 1 q316_11 + 1 q316_10 + 1 q316_1 = 1
9 r316_9 + 8 r316_8 + 7 r316_7 + 6 r316_6 + 5 r316_5 + 4 r316_4 + 3 r316_3 + 2 r316_2 + 13 r316_13 + 12 r316_12 + 11 r316_11 + 10 r316_10 - 9 q316_9 - 8 q316_8 - 7 q316_7 - 6 q316_6 - 5 q316_5 - 4 q316_4 - 3 q316_3 - 2 q316_2 - 12 q316_12 - 11 q316_11 - 10 q316_10 - 1 q316_1 >= 1
1 r316_9 + 1 r316_8 + 1 r316_7 + 1 r316_6 + 1 r316_5 + 1 r316_4 + 1 r316_3 + 1 r316_2 + 1 r316_13 + 1 r316_12 + 1 r316_11 + 1 r316_10 = 1
9 s316_9 + 8 s316_8 + 7 s316_7 + 6 s316_6 + 5 s316_5 + 4 s316_4 + 3 s316_3 + 14 s316_14 + 13 s316_13 + 12 s316_12 + 11 s316_11 + 10 s316_10 - 9 r316_9 - 8 r316_8 - 7 r316_7 - 6 r316_6 - 5 r316_5 - 4 r316_4 - 3 r316_3 - 2 r316_2 - 13 r316_13 - 12 r316_12 - 11 r316_11 - 10 r316_10 >= 1
1 s316_9 + 1 s316_8 + 1 s316_7 + 1 s316_6 + 1 s316_5 + 1 s316_4 + 1 s316_3 + 1 s316_14 + 1 s316_13 + 1 s316_12 + 1 s316_11 + 1 s316_10 = 1
9 t316_9 + 8 t316_8 + 7 t316_7 + 6 t316_6 + 5 t316_5 + 4 t316_4 + 15 t316_15 + 14 t316_14 + 13 t316_13 + 12 t316_12 + 11 t316_11 + 10 t316_10 - 9 s316_9 - 8 s316_8 - 7 s316_7 - 6 s316_6 - 5 s316_5 - 4 s316_4 - 3 s316_3 - 14 s316_14 - 13 s316_13 - 12 s316_12 - 11 s316_11 - 10 s316_10 >= 1
1 t316_9 + 1 t316_8 + 1 t316_7 + 1 t316_6 + 1 t316_5 + 1 t316_4 + 1 t316_15 + 1 t316_14 + 1 t316_13 + 1 t316_12 + 1 t316_11 + 1 t316_10 = 1
9 t316_9 - 8 t316_8 - 7 t316_7 - 6 t316_6 - 5 t316_5 - 4 t316_4 - 15 t316_15 - 14 t316_14 - 13 t316_13 - 12 t316_12 - 11 t316_11 - 10 t316_10 + 9 p_9 + 8 p_8 + 7 p_7 + 6 p_6 + 5 p_5 + 16 p_16 + 15 p_15 + 14 p_14 + 13 p_13 + 12 p_12 + 11 p_11 + 10 p_10 >= 1
1 u316_9 + 1 u316_8 + 1 u316_7 + 1 u316_6 + 1 u316_5 + 1 u316_4 + 1 u316_3 + 1 u316_2 + 1 u316_15 + 1 u316_14 + 1 u316_13 + 1 u316_12 + 1 u316_11 + 1 u316_10 = 1
9 u316_9 - 8 u316_8 - 7 u316_7 - 6 u316_6 - 5 u316_5 - 4 u316_4 - 3 u316_3 - 2 u316_2 - 15 u316_15 - 14 u316_14 - 13 u316_13 - 12 u316_12 - 11 u316_11 - 10 u316_10 + 9 p_9 + 8 p_8 + 7 p_7 + 6 p_6 + 5 p_5 + 16 p_16 + 15 p_15 + 14 p_14 + 13 p_13 + 12 p_12 + 11 p_11 + 10 p_10 >= 1
9 u316_9 - 8 u316_8 - 7 u316_7 - 6 u316_6 - 5 u316_5 - 4 u316_4 - 3 u316_3 - 2 u316_2 - 15 u316_15 - 14 u316_14 - 13 u316_13 - 12 u316_12 - 11 u316_11 - 10 u316_10 + 9 q_9 + 8 q_8 + 7 q_7 + 6 q_6 + 5 q_5 + 16 q_16 + 15 q_15 + 14 q_14 + 13 q_13 + 12 q_12 + 11 q_11 + 10 q_10 >= 1
1 y316_9 + 1 y316_8 + 1 y316_7 + 1 y316_6 + 1 y316_5 + 1 y316_4 + 1 y316_3 + 1 y316_14 + 1 y316_13 + 1 y316_12 + 1 y316_11 + 1 y316_10 = 1
9 z316_9 + 8 z316_8 + 7 z316_7 + 6 z316_6 + 5 z316_5 + 4 z316_4 + 15 z316_15 + 14 z316_14 + 13 z316_13 + 12 z316_12 + 11 z316_11 + 10 z316_10 - 9 y316_9 - 8 y316_8 - 7 y316_7 - 6 y316_6 - 5 y316_5 - 4 y316_4 - 3 y316_3 - 14 y316_14 - 13 y316_13 - 12 y316_12 - 11 y316_11 - 10 y316_10 >= 1
1 z316_9 + 1 z316_8 + 1 z316_7 + 1 z316_6 + 1 z316_5 + 1 z316_4 + 1 z316_15 + 1 z316_14 + 1 z316_13 + 1 z316_12 + 1 z316_11 + 1 z316_10 = 1
9 z316_9 - 8 z316_8 - 7 z316_7 - 6 z316_6 - 5 z316_5 - 4 z316_4 - 15 z316_15 - 14 z316_14 - 13 z316_13 - 12 z316_12 - 11 z316_11 - 10 z316_10 + 9 q_9 + 8 q_8 + 7 q_7 + 6 q_6 + 5 q_5 + 16 q_16 + 15 q_15 + 14 q_14 + 13 q_13 + 12 q_12 + 11 q_11 + 10 q_10 >= 1
1 b317_9 + 1 b317_8 + 1 b317_7 + 1 b317_6 + 1 b317_5 + 1 b317_4 + 1 b317_3 + 1 b317_2 + 1 b317_13 + 1 b317_12 + 1 b317_11 + 1 b317_10 = 1
9 d317_9 + 8 d317_8 + 7 d317_7 + 6 d317_6 + 5 d317_5 + 4 d317_4 + 3 d317_3 + 14 d317_14 + 13 d317_13 + 12 d317_12 + 11 d317_11 + 10 d317_10 - 9 b317_9 - 8 b317_8 - 7 b317_7 - 6 b317_6 - 5 b317_5 - 4 b317_4 - 3 b317_3 - 2 b317_2 - 13 b317_13 - 12 b317_12 - 11 b317_11 - 10 b317_10 >= 1
1 c317_9 + 1 c317_8 + 1 c317_7 + 1 c317_6 + 1 c317_5 + 1 c317_4 + 1 c317_3 + 1 c317_2 + 1 c317_13 + 1 c317_12 + 1 c317_11 + 1 c317_10 = 1
9 d317_9 + 8 d317_8 + 7 d317_7 + 6 d317_6 + 5 d317_5 + 4 d317_4 + 3 d317_3 + 14 d317_14 + 13 d317_13 + 12 d317_12 + 11 d317_11 + 10 d317_10 - 9 c317_9 - 8 c317_8 - 7 c317_7 - 6 c317_6 - 5 c317_5 - 4 c317_4 - 3 c317_3 - 2 c317_2 - 13 c317_13 - 12 c317_12 - 11 c317_11 - 10 c317_10 >= 1
1 d317_9 + 1 d317_8 + 1 d317_7 + 1 d317_6 + 1 d317_5 + 1 d317_4 + 1 d317_3 + 1 d317_14 + 1 d317_13 + 1 d317_12 + 1 d317_11 + 1 d317_10 = 1
9 e317_9 + 8 e317_8 + 7 e317_7 + 6 e317_6 + 5 e317_5 + 4 e317_4 + 15 e317_15 + 14 e317_14 + 13 e317_13 + 12 e317_12 + 11 e317_11 + 10 e317_10 - 9 d317_9 - 8 d317_8 - 7 d317_7 - 6 d317_6 - 5 d317_5 - 4 d317_4 - 3 d317_3 - 14 d317_14 - 13 d317_13 - 12 d317_12 - 11 d317_11 - 10 d317_10 >= 1
1 e317_9 + 1 e317_8 + 1 e317_7 + 1 e317_6 + 1 e317_5 + 1 e317_4 + 1 e317_15 + 1 e317_14 + 1 e317_13 + 1 e317_12 + 1 e317_11 + 1 e317_10 = 1
9 q_9 + 8 q_8 + 7 q_7 + 6 q_6 + 5 q_5 + 16 q_16 + 15 q_15 + 14 q_14 + 13 q_13 + 12 q_12 + 11 q_11 + 10 q_10 - 9 e317_9 - 8 e317_8 - 7 e317_7 - 6 e317_6 - 5 e317_5 - 4 e317_4 - 15 e317_15 - 14 e317_14 - 13 e317_13 - 12 e317_12 - 11 e317_11 - 10 e317_10 >= 1
1 q315_1 + 1 b316_1 <= 1
1 t315_1 + 1 r315_1 + 1 q316_1 + 1 o316_1 + 1 o315_1 + 1 f316_1 + 1 e316_1 + 1 d316_1 <= 1
1 u316_2 + 1 r316_2 + 1 p316_2 + 1 l316_2 + 1 c317_2 + 1 b317_2 <= 1
1 y315_2 + 1 v315_2 + 1 u315_2 + 1 s315_2 + 1 q315_2 + 1 p315_2 + 1 g316_2 + 1 b316_2 <= 1
1 t315_2 + 1 r315_2 + 1 q316_2 + 1 o316_2 + 1 o315_2 + 1 m_2 + 1 f316_2 + 1 e316_2 + 1 d316_2 <= 1
1 z315_3 + 1 y316_3 + 1 w315_3 + 1 u316_3 + 1 r316_3 + 1 p316_3 + 1 l316_3 + 1 j316_3 + 1 h316_3 + 1 c317_3 + 1 b317_3 <= 1
1 y315_3 + 1 v315_3 + 1 u315_3 + 1 s316_3 + 1 s315_3 + 1 q315_3 + 1 p315_3 + 1 m316_3 + 1 g316_3 + 1 d317_3 + 1 b316_3 <= 1
1 t315_3 + 1 r315_3 + 1 q316_3 + 1 o316_3 + 1 o315_3 + 1 m_3 + 1 f316_3 + 1 e316_3 + 1 d316_3 <= 1
1 z315_4 + 1 y316_4 + 1 w315_4 + 1 u316_4 + 1 t316_4 + 1 r316_4 + 1 p316_4 + 1 n316_4 + 1 l316_4 + 1 j316_4 + 1 h316_4 + 1 e317_4 + 1 c317_4 + 1 b317_4 <= 1
1 y315_4 + 1 v315_4 + 1 u315_4 + 1 s316_4 + 1 s315_4 + 1 q315_4 + 1 p315_4 + 1 m316_4 + 1 g316_4 + 1 d317_4 + 1 b316_4 <= 1
1 z316_4 + 1 t315_4 + 1 r315_4 + 1 q316_4 + 1 o_4 + 1 o316_4 + 1 o315_4 + 1 n_4 + 1 m_4 + 1 l_4 + 1 k_4 + 1 f316_4 + 1 e316_4 + 1 d316_4 <= 1
1 z315_5 + 1 y316_5 + 1 w315_5 + 1 u316_5 + 1 t316_5 + 1 r316_5 + 1 p316_5 + 1 n316_5 + 1 l316_5 + 1 j316_5 + 1 h316_5 + 1 e317_5 + 1 c317_5 + 1 b317_5 <= 1
1 y315_5 + 1 v315_5 + 1 u315_5 + 1 s316_5 + 1 s315_5 + 1 q_5 + 1 q315_5 + 1 p_5 + 1 p315_5 + 1 m316_5 + 1 g316_5 + 1 d317_5 + 1 b316_5 <= 1
1 z316_5 + 1 t315_5 + 1 r315_5 + 1 q316_5 + 1 o_5 + 1 o316_5 + 1 o315_5 + 1 n_5 + 1 m_5 + 1 l_5 + 1 k_5 + 1 f316_5 + 1 e316_5 + 1 d316_5 <= 1
1 z315_6 + 1 y316_6 + 1 w315_6 + 1 u316_6 + 1 t316_6 + 1 r316_6 + 1 p316_6 + 1 n316_6 + 1 l316_6 + 1 j316_6 + 1 h316_6 + 1 e317_6 + 1 c317_6 + 1 b317_6 <= 1
1 y315_6 + 1 v315_6 + 1 u315_6 + 1 s316_6 + 1 s315_6 + 1 q_6 + 1 q315_6 + 1 p_6 + 1 p315_6 + 1 m316_6 + 1 g316_6 + 1 d317_6 + 1 b316_6 <= 1
1 z316_6 + 1 t315_6 + 1 r315_6 + 1 q316_6 + 1 o_6 + 1 o316_6 + 1 o315_6 + 1 n_6 + 1 m_6 + 1 l_6 + 1 k_6 + 1 f316_6 + 1 e316_6 + 1 d316_6 <= 1
1 z315_7 + 1 y316_7 + 1 w315_7 + 1 u316_7 + 1 t316_7 + 1 r316_7 + 1 p316_7 + 1 n316_7 + 1 l316_7 + 1 j316_7 + 1 h316_7 + 1 e317_7 + 1 c317_7 + 1 b317_7 <= 1
1 y315_7 + 1 v315_7 + 1 u315_7 + 1 s316_7 + 1 s315_7 + 1 q_7 + 1 q315_7 + 1 p_7 + 1 p315_7 + 1 m316_7 + 1 g316_7 + 1 d317_7 + 1 b316_7 <= 1
1 z316_7 + 1 t315_7 + 1 r315_7 + 1 q316_7 + 1 o_7 + 1 o316_7 + 1 o315_7 + 1 n_7 + 1 m_7 + 1 l_7 + 1 k_7 + 1 f316_7 + 1 e316_7 + 1 d316_7 <= 1
1 z315_8 + 1 y316_8 + 1 w315_8 + 1 u316_8 + 1 t316_8 + 1 r316_8 + 1 p316_8 + 1 n316_8 + 1 l316_8 + 1 j316_8 + 1 h316_8 + 1 e317_8 + 1 c317_8 + 1 b317_8 <= 1
1 y315_8 + 1 v315_8 + 1 u315_8 + 1 s316_8 + 1 s315_8 + 1 q_8 + 1 q315_8 + 1 p_8 + 1 p315_8 + 1 m316_8 + 1 g316_8 + 1 d317_8 + 1 b316_8 <= 1
1 z316_8 + 1 t315_8 + 1 r315_8 + 1 q316_8 + 1 o_8 + 1 o316_8 + 1 o315_8 + 1 n_8 + 1 m_8 + 1 l_8 + 1 k_8 + 1 f316_8 + 1 e316_8 + 1 d316_8 <= 1
1 z315_9 + 1 y316_9 + 1 w315_9 + 1 u316_9 + 1 t316_9 + 1 r316_9 + 1 p316_9 + 1 n316_9 + 1 l316_9 + 1 j316_9 + 1 h316_9 + 1 e317_9 + 1 c317_9 + 1 b317_9 <= 1
1 y315_9 + 1 v315_9 + 1 u315_9 + 1 s316_9 + 1 s315_9 + 1 q_9 + 1 q315_9 + 1 p_9 + 1 p315_9 + 1 m316_9 + 1 g316_9 + 1 d317_9 + 1 b316_9 <= 1
1 z316_9 + 1 t315_9 + 1 r315_9 + 1 q316_9 + 1 o_9 + 1 o316_9 + 1 o315_9 + 1 n_9 + 1 m_9 + 1 l_9 + 1 k_9 + 1 f316_9 + 1 e316_9 + 1 d316_9 <= 1
1 z315_10 + 1 y316_10 + 1 w315_10 + 1 u316_10 + 1 t316_10 + 1 r316_10 + 1 p316_10 + 1 n316_10 + 1 l316_10 + 1 j316_10 + 1 h316_10 + 1 e317_10 + 1 c317_10 + 1 b317_10 <= 1
1 y315_10 + 1 v315_10 + 1 u315_10 + 1 s316_10 + 1 s315_10 + 1 q_10 + 1 q315_10 + 1 p_10 + 1 p315_10 + 1 m316_10 + 1 g316_10 + 1 d317_10 + 1 b316_10 <= 1
1 z316_10 + 1 t315_10 + 1 r315_10 + 1 q316_10 + 1 o_10 + 1 o316_10 + 1 o315_10 + 1 n_10 + 1 m_10 + 1 l_10 + 1 k_10 + 1 f316_10 + 1 e316_10 + 1 d316_10 <= 1
1 z315_11 + 1 y316_11 + 1 w315_11 + 1 u316_11 + 1 t316_11 + 1 r316_11 + 1 p316_11 + 1 n316_11 + 1 l316_11 + 1 j316_11 + 1 h316_11 + 1 e317_11 + 1 c317_11 + 1 b317_11 <= 1
1 y315_11 + 1 v315_11 + 1 u315_11 + 1 s316_11 + 1 s315_11 + 1 q_11 + 1 q315_11 + 1 p_11 + 1 p315_11 + 1 m316_11 + 1 g316_11 + 1 d317_11 + 1 b316_11 <= 1
1 z316_11 + 1 t315_11 + 1 r315_11 + 1 q316_11 + 1 o_11 + 1 o316_11 + 1 o315_11 + 1 n_11 + 1 m_11 + 1 l_11 + 1 k_11 + 1 f316_11 + 1 e316_11 + 1 d316_11 <= 1
1 z315_12 + 1 y316_12 + 1 w315_12 + 1 u316_12 + 1 t316_12 + 1 r316_12 + 1 p316_12 + 1 n316_12 + 1 l316_12 + 1 j316_12 + 1 h316_12 + 1 e317_12 + 1 c317_12 + 1 b317_12 <= 1
1 y315_12 + 1 v315_12 + 1 u315_12 + 1 s316_12 + 1 s315_12 + 1 q_12 + 1 q315_12 + 1 p_12 + 1 p315_12 + 1 m316_12 + 1 g316_12 + 1 d317_12 + 1 b316_12 <= 1
1 z316_12 + 1 t315_12 + 1 r315_12 + 1 q316_12 + 1 o_12 + 1 o316_12 + 1 o315_12 + 1 n_12 + 1 m_12 + 1 l_12 + 1 k_12 + 1 f316_12 + 1 e316_12 + 1 d316_12 <= 1
1 z315_13 + 1 y316_13 + 1 w315_13 + 1 u316_13 + 1 t316_13 + 1 r316_13 + 1 p316_13 + 1 n316_13 + 1 l316_13 + 1 j316_13 + 1 h316_13 + 1 e317_13 + 1 c317_13 + 1 b317_13 <= 1
1 y315_13 + 1 v315_13 + 1 u315_13 + 1 s316_13 + 1 s315_13 + 1 q_13 + 1 q315_13 + 1 p_13 + 1 p315_13 + 1 m316_13 + 1 g316_13 + 1 d317_13 + 1 b316_13 <= 1
1 z316_13 + 1 r315_13 + 1 o_13 + 1 o316_13 + 1 n_13 + 1 m_13 + 1 l_13 + 1 k_13 <= 1
1 z315_14 + 1 y316_14 + 1 w315_14 + 1 u316_14 + 1 t316_14 + 1 n316_14 + 1 j316_14 + 1 h316_14 + 1 e317_14 <= 1
1 y315_14 + 1 v315_14 + 1 s316_14 + 1 s315_14 + 1 q_14 + 1 q315_14 + 1 p_14 + 1 p315_14 + 1 m316_14 + 1 g316_14 + 1 d317_14 <= 1
1 z316_14 + 1 o_14 + 1 o316_14 + 1 n_14 + 1 m_14 + 1 l_14 + 1 k_14 <= 1
1 z315_15 + 1 w315_15 + 1 u316_15 + 1 t316_15 + 1 n316_15 + 1 j316_15 + 1 h316_15 + 1 e317_15 <= 1
1 q_15 + 1 p_15 <= 1
1 z316_15 + 1 o_15 + 1 o316_15 + 1 n_15 + 1 m_15 + 1 l_15 + 1 k_15 <= 1
1 q_16 + 1 p_16 <= 1
1 o_16 + 1 n_16 + 1 m_16 + 1 l_16 + 1 k_16 <= 1
Binary
b316_13
b316_12
b316_11
b316_10
b316_9
b316_8
b316_7
b316_6
b316_5
b316_4
b316_3
b316_2
b316_1
o315_12
o315_11
o315_10
o315_9
o315_8
o315_7
o315_6
o315_5
o315_4
o315_3
o315_2
o315_1
b317_13
b317_12
b317_11
b317_10
b317_9
b317_8
b317_7
b317_6
b317_5
b317_4
b317_3
b317_2
q315_14
q315_13
q315_12
q315_11
q315_10
q315_9
q315_8
q315_7
q315_6
q315_5
q315_4
q315_3
q315_2
q315_1
t315_12
t315_11
t315_10
t315_9
t315_8
t315_7
t315_6
t315_5
t315_4
t315_3
t315_2
t315_1
u316_15
u316_14
u316_13
u316_12
u316_11
u316_10
u316_9
u316_8
u316_7
u316_6
u316_5
u316_4
u316_3
u316_2
u315_13
u315_12
u315_11
u315_10
u315_9
u315_8
u315_7
u315_6
u315_5
u315_4
u315_3
u315_2
d316_12
d316_11
d316_10
d316_9
d316_8
d316_7
d316_6
d316_5
d316_4
d316_3
d316_2
d316_1
y316_14
y316_13
y316_12
y316_11
y316_10
y316_9
y316_8
y316_7
y316_6
y316_5
y316_4
y316_3
p315_14
p315_13
p315_12
p315_11
p315_10
p315_9
p315_8
p315_7
p315_6
p315_5
p315_4
p315_3
p315_2
e316_12
e316_11
e316_10
e316_9
e316_8
e316_7
e316_6
e316_5
e316_4
e316_3
e316_2
e316_1
l316_13
l316_12
l316_11
l316_10
l316_9
l316_8
l316_7
l316_6
l316_5
l316_4
l316_3
l316_2
y315_14
y315_13
y315_12
y315_11
y315_10
y315_9
y315_8
y315_7
y315_6
y315_5
y315_4
y315_3
y315_2
f316_12
f316_11
f316_10
f316_9
f316_8
f316_7
f316_6
f316_5
f316_4
f316_3
f316_2
f316_1
p316_13
p316_12
p316_11
p316_10
p316_9
p316_8
p316_7
p316_6
p316_5
p316_4
p316_3
p316_2
g316_14
g316_13
g316_12
g316_11
g316_10
g316_9
g316_8
g316_7
g316_6
g316_5
g316_4
g316_3
g316_2
q316_12
q316_11
q316_10
q316_9
q316_8
q316_7
q316_6
q316_5
q316_4
q316_3
q316_2
q316_1
r316_13
r316_12
r316_11
r316_10
r316_9
r316_8
r316_7
r316_6
r316_5
r316_4
r316_3
r316_2
m316_14
m316_13
m316_12
m316_11
m316_10
m316_9
m316_8
m316_7
m316_6
m316_5
m316_4
m316_3
r315_13
r315_12
r315_11
r315_10
r315_9
r315_8
r315_7
r315_6
r315_5
r315_4
r315_3
r315_2
r315_1
c317_13
c317_12
c317_11
c317_10
c317_9
c317_8
c317_7
c317_6
c317_5
c317_4
c317_3
c317_2
s315_14
s315_13
s315_12
s315_11
s315_10
s315_9
s315_8
s315_7
s315_6
s315_5
s315_4
s315_3
s315_2
o316_15
o316_14
o316_13
o316_12
o316_11
o316_10
o316_9
o316_8
o316_7
o316_6
o316_5
o316_4
o316_3
o316_2
o316_1
h316_15
h316_14
h316_13
h316_12
h316_11
h316_10
h316_9
h316_8
h316_7
h316_6
h316_5
h316_4
h316_3
v315_14
v315_13
v315_12
v315_11
v315_10
v315_9
v315_8
v315_7
v315_6
v315_5
v315_4
v315_3
v315_2
m_16
m_15
m_14
m_13
m_12
m_11
m_10
m_9
m_8
m_7
m_6
m_5
m_4
m_3
m_2
w315_15
w315_14
w315_13
w315_12
w315_11
w315_10
w315_9
w315_8
w315_7
w315_6
w315_5
w315_4
w315_3
s316_14
s316_13
s316_12
s316_11
s316_10
s316_9
s316_8
s316_7
s316_6
s316_5
s316_4
s316_3
z316_15
z316_14
z316_13
z316_12
z316_11
z316_10
z316_9
z316_8
z316_7
z316_6
z316_5
z316_4
z315_15
z315_14
z315_13
z315_12
z315_11
z315_10
z315_9
z315_8
z315_7
z315_6
z315_5
z315_4
z315_3
d317_14
d317_13
d317_12
d317_11
d317_10
d317_9
d317_8
d317_7
d317_6
d317_5
d317_4
d317_3
k_16
k_15
k_14
k_13
k_12
k_11
k_10
k_9
k_8
k_7
k_6
k_5
k_4
j316_15
j316_14
j316_13
j316_12
j316_11
j316_10
j316_9
j316_8
j316_7
j316_6
j316_5
j316_4
j316_3
l_16
l_15
l_14
l_13
l_12
l_11
l_10
l_9
l_8
l_7
l_6
l_5
l_4
n316_15
n316_14
n316_13
n316_12
n316_11
n316_10
n316_9
n316_8
n316_7
n316_6
n316_5
n316_4
n_16
n_15
n_14
n_13
n_12
n_11
n_10
n_9
n_8
n_7
n_6
n_5
n_4
t316_15
t316_14
t316_13
t316_12
t316_11
t316_10
t316_9
t316_8
t316_7
t316_6
t316_5
t316_4
o_16
o_15
o_14
o_13
o_12
o_11
o_10
o_9
o_8
o_7
o_6
o_5
o_4
e317_15
e317_14
e317_13
e317_12
e317_11
e317_10
e317_9
e317_8
e317_7
e317_6
e317_5
e317_4
p_16
p_15
p_14
p_13
p_12
p_11
p_10
p_9
p_8
p_7
p_6
p_5
q_16
q_15
q_14
q_13
q_12
q_11
q_10
q_9
q_8
q_7
q_6
q_5
end_17
end_16
end_15
end_14
end_13
end_12
end_11
end_10
end_9
end_8
end_7
end_6
End
